k = 24;
b = 12;
AtomicConstraints =  [|
2, 3|
	2, 4|
	2, 12|
	3, 4|
	5, 3|
	5, 4|
	5, 6|
	5, 8|
	5, 9|
	1, 7|
	1, 11|
	1, 12|
	6, 8|
	6, 9|
	7, 11|
	7, 12|
	11, 12|
	17, 13|
	17, 19|
	17, 23|
	17, 24|
	14, 13|
	14, 19|
	14, 23|
	14, 24|
	22, 20|
	22, 16|
	22, 23|
	21, 16|
	21, 23|
	13, 23|
	13, 24|
	19, 24|
	18, 19|
	18, 24|
	15, 19|
	15, 24|];
DisjunctiveConstraints =  [|8, 9, 8, 4|
	9, 10, 9, 8|
	14, 23, 14, 11|
	22, 20, 22, 8|
	21, 16, 21, 4|
	13, 23, 13, 11|
	19, 24, 19, 12|
	15, 24, 15, 12|];
SoftAtomicConstraints =  [|
2, 1|
5, 2|
6, 3|
8, 4|
9, 8|
10, 9|
3, 11|
4, 12|
21, 13|
17, 14|
18, 15|
20, 16|
14, 18|
13, 19|
22, 21|
16, 23|
23, 24|];
DirectSuccessors =  [];
